<number of tasks>
50

<cycle time>
1000

<order strength>
0.896


<task times>
1 308
2 267
3 229
4 38
5 278
6 166
7 77
8 128
9 112
10 170
11 168
12 70
13 20
14 90
15 143
16 103
17 167
18 25
19 172
20 197
21 25
22 102
23 134
24 197
25 213
26 253
27 51
28 66
29 175
30 61
31 85
32 44
33 75
34 128
35 51
36 63
37 149
38 310
39 185
40 128
41 211
42 64
43 130
44 91
45 99
46 187
47 27
48 73
49 57
50 143

<precedence relations>
1,4
1,5
1,6
2,4
2,5
2,6
3,4
3,5
3,6
4,7
4,8
4,9
5,7
5,8
5,9
6,7
6,8
6,9
7,10
7,11
8,10
8,11
9,10
9,11
10,12
10,13
10,14
11,12
11,13
11,14
12,15
12,16
12,17
12,18
13,15
13,16
13,17
13,18
14,15
14,16
14,17
14,18
15,19
16,19
17,19
18,19
19,20
19,21
20,22
20,23
20,24
20,25
21,22
21,23
21,24
21,25
22,26
22,27
22,28
22,29
23,26
23,28
23,32
24,26
24,27
24,29
25,26
25,27
25,28
25,29
26,41
26,43
26,44
27,32
27,39
28,30
29,31
30,33
31,32
31,34
32,36
33,35
33,36
34,35
35,37
36,38
36,41
36,42
36,44
37,39
38,43
38,46
39,40
39,41
39,42
40,43
40,44
40,45
42,45
42,46
43,47
43,48
43,49
43,50
45,47
46,48

<end>
